1280
3213
2574
3897
2265
1460
2489
2794
3525
2266
2173
2030
2529
677
2395
2490
172
412
3446
650
2671
3214
3360
1278
2592
313
847
2345
190
4259
2316
1740
720
3081
1136
2364
2701
1452
1323
1169
3433
642
282
239
3461
793
408
1941
3088
859
3482
3297
858
3441
3033
3426
2912
1619
1044
1832
1761
3342
773
1876
3965
1319
3957
1692
2266
3513
3324
926
1480
3386
2941
1063
2902
2208
1445
2556
3492
2425
742
1497
1595
3800
2968
2999
4292
2537
989
4301
839
2340
275
3635
365
2449
637
972
